1243390
83,50,31,94,5,29,60,84,42,43,19,24,82,2,62,78,66,3,102,55,91,73,14,22,63,21,57,53,101,99,52,16,47,79,20,12,32,77,107,41,59,105,54,11,27,39,67,7,35,64,87,75,17,49,98,104,92,95,86,61,18,72,6,70,46,96,103,10,88,90,48,30,38,13,69,68,26,85,56,74,71,37,40,25,36,8,76,65,9,23,108,89,44,4,34,97,100,0,81,33,51,28,15,106,93,45,80,1,58
